;; translated from ./ctigar/nested.c.vmt
;; original benchmark available at: https://es-static.fbk.eu/people/griggio/ic3ia/index.html
;; author: Alberto Griggio <griggio@fbk.eu>
(set-logic HORN)
(declare-fun state (Bool Bool Bool Bool Int Int Int Int) Bool)
(assert (forall ((|.s.0| Bool) (|.s.1| Bool) (|.s.2.next| Bool) (|.s.0.next| Bool) (|.s.1.next| Bool) (|.s.3.next| Bool) (|main.i.next| Int) (|main.i| Int) (|main.k.next| Int) (|main.k| Int) (|main.l.next| Int) (|main.l| Int) (|main.n.next| Int) (|main.n| Int) (|.s.3| Bool) (|.s.2| Bool)) (=> (let ((.def_17 (not .s.3)))
(let ((.def_14 (not .s.2)))
(let ((.def_10 (not .s.1)))
(let ((.def_12 (and .def_10 .s.0)))
(let ((.def_15 (and .def_12 .def_14)))
(let ((.def_18 (and .def_15 .def_17)))
.def_18)))))) (state |.s.1| |.s.0| |.s.2| |.s.3| |main.i| |main.k| |main.l| |main.n|))))
(assert (forall ((|.s.0| Bool) (|.s.1| Bool) (|.s.2.next| Bool) (|.s.0.next| Bool) (|.s.1.next| Bool) (|.s.3.next| Bool) (|main.i.next| Int) (|main.i| Int) (|main.k.next| Int) (|main.k| Int) (|main.l.next| Int) (|main.l| Int) (|main.n.next| Int) (|main.n| Int) (|.s.3| Bool) (|.s.2| Bool)) (=> (and (state |.s.1| |.s.0| |.s.2| |.s.3| |main.i| |main.k| |main.l| |main.n|) (let ((.def_19 (not .s.0)))
(let ((.def_10 (not .s.1)))
(let ((.def_20 (and .def_10 .def_19)))
(let ((.def_14 (not .s.2)))
(let ((.def_92 (and .def_14 .def_20)))
(let ((.def_17 (not .s.3)))
(let ((.def_193 (and .def_17 .def_92)))
(let ((.def_194 (not .def_193)))
(let ((.def_55 (not .s.2.next)))
(let ((.def_27 (not .s.0.next)))
(let ((.def_25 (not .s.1.next)))
(let ((.def_28 (and .def_25 .def_27)))
(let ((.def_56 (and .def_28 .def_55)))
(let ((.def_54 (not .s.3.next)))
(let ((.def_57 (and .def_54 .def_56)))
(let ((.def_35 (= main.i main.i.next)))
(let ((.def_58 (and .def_35 .def_57)))
(let ((.def_39 (= main.k main.k.next)))
(let ((.def_59 (and .def_39 .def_58)))
(let ((.def_43 (= main.l main.l.next)))
(let ((.def_60 (and .def_43 .def_59)))
(let ((.def_47 (= main.n main.n.next)))
(let ((.def_61 (and .def_47 .def_60)))
(let ((.def_195 (or .def_61 .def_194)))
(let ((.def_187 (= main.k.next 1)))
(let ((.def_80 (and .s.1.next .def_27)))
(let ((.def_81 (and .def_55 .def_80)))
(let ((.def_95 (and .def_54 .def_81)))
(let ((.def_188 (and .def_95 .def_187)))
(let ((.def_189 (and .def_35 .def_188)))
(let ((.def_190 (and .def_43 .def_189)))
(let ((.def_191 (and .def_47 .def_190)))
(let ((.def_12 (and .def_10 .s.0)))
(let ((.def_15 (and .def_12 .def_14)))
(let ((.def_18 (and .def_15 .def_17)))
(let ((.def_186 (not .def_18)))
(let ((.def_192 (or .def_186 .def_191)))
(let ((.def_196 (and .def_192 .def_195)))
(let ((.def_67 (and .s.1.next .s.0.next)))
(let ((.def_68 (and .def_55 .def_67)))
(let ((.def_180 (and .def_54 .def_68)))
(let ((.def_181 (and .def_35 .def_180)))
(let ((.def_182 (and .def_39 .def_181)))
(let ((.def_183 (and .def_43 .def_182)))
(let ((.def_184 (and .def_47 .def_183)))
(let ((.def_167 (<= main.n main.k)))
(let ((.def_177 (not .def_167)))
(let ((.def_63 (and .s.1 .def_19)))
(let ((.def_64 (and .def_14 .def_63)))
(let ((.def_166 (and .def_17 .def_64)))
(let ((.def_178 (and .def_166 .def_177)))
(let ((.def_179 (not .def_178)))
(let ((.def_185 (or .def_179 .def_184)))
(let ((.def_197 (and .def_185 .def_196)))
(let ((.def_141 (and .def_25 .s.0.next)))
(let ((.def_170 (and .def_55 .def_141)))
(let ((.def_171 (and .s.3.next .def_170)))
(let ((.def_172 (and .def_35 .def_171)))
(let ((.def_173 (and .def_39 .def_172)))
(let ((.def_174 (and .def_43 .def_173)))
(let ((.def_175 (and .def_47 .def_174)))
(let ((.def_168 (and .def_166 .def_167)))
(let ((.def_169 (not .def_168)))
(let ((.def_176 (or .def_169 .def_175)))
(let ((.def_198 (and .def_176 .def_197)))
(let ((.def_160 (= main.i.next 1)))
(let ((.def_30 (and .def_28 .s.2.next)))
(let ((.def_117 (and .def_30 .def_54)))
(let ((.def_161 (and .def_117 .def_160)))
(let ((.def_162 (and .def_39 .def_161)))
(let ((.def_163 (and .def_43 .def_162)))
(let ((.def_164 (and .def_47 .def_163)))
(let ((.def_50 (and .s.1 .s.0)))
(let ((.def_51 (and .def_14 .def_50)))
(let ((.def_158 (and .def_17 .def_51)))
(let ((.def_159 (not .def_158)))
(let ((.def_165 (or .def_159 .def_164)))
(let ((.def_199 (and .def_165 .def_198)))
(let ((.def_151 (and .s.2.next .def_67)))
(let ((.def_152 (and .def_54 .def_151)))
(let ((.def_153 (and .def_35 .def_152)))
(let ((.def_154 (and .def_39 .def_153)))
(let ((.def_155 (and .def_43 .def_154)))
(let ((.def_156 (and .def_47 .def_155)))
(let ((.def_137 (<= main.n main.i)))
(let ((.def_21 (and .s.2 .def_20)))
(let ((.def_136 (and .def_17 .def_21)))
(let ((.def_149 (and .def_136 .def_137)))
(let ((.def_150 (not .def_149)))
(let ((.def_157 (or .def_150 .def_156)))
(let ((.def_200 (and .def_157 .def_199)))
(let ((.def_142 (and .s.2.next .def_141)))
(let ((.def_143 (and .def_54 .def_142)))
(let ((.def_144 (and .def_35 .def_143)))
(let ((.def_145 (and .def_39 .def_144)))
(let ((.def_146 (and .def_43 .def_145)))
(let ((.def_147 (and .def_47 .def_146)))
(let ((.def_138 (not .def_137)))
(let ((.def_139 (and .def_136 .def_138)))
(let ((.def_140 (not .def_139)))
(let ((.def_148 (or .def_140 .def_147)))
(let ((.def_201 (and .def_148 .def_200)))
(let ((.def_129 (and .s.2.next .def_80)))
(let ((.def_130 (and .def_54 .def_129)))
(let ((.def_126 (* (- 1) main.i.next)))
(let ((.def_127 (+ main.i .def_126)))
(let ((.def_128 (= .def_127 (- 1))))
(let ((.def_131 (and .def_128 .def_130)))
(let ((.def_132 (and .def_39 .def_131)))
(let ((.def_133 (and .def_43 .def_132)))
(let ((.def_134 (and .def_47 .def_133)))
(let ((.def_123 (and .def_12 .s.2)))
(let ((.def_124 (and .def_17 .def_123)))
(let ((.def_125 (not .def_124)))
(let ((.def_135 (or .def_125 .def_134)))
(let ((.def_202 (and .def_135 .def_201)))
(let ((.def_118 (and .def_35 .def_117)))
(let ((.def_119 (and .def_39 .def_118)))
(let ((.def_120 (and .def_43 .def_119)))
(let ((.def_121 (and .def_47 .def_120)))
(let ((.def_114 (and .s.2 .def_63)))
(let ((.def_115 (and .def_17 .def_114)))
(let ((.def_116 (not .def_115)))
(let ((.def_122 (or .def_116 .def_121)))
(let ((.def_203 (and .def_122 .def_202)))
(let ((.def_108 (and .s.3.next .def_56)))
(let ((.def_105 (* (- 1) main.k.next)))
(let ((.def_106 (+ main.k .def_105)))
(let ((.def_107 (= .def_106 (- 1))))
(let ((.def_109 (and .def_107 .def_108)))
(let ((.def_110 (and .def_35 .def_109)))
(let ((.def_111 (and .def_43 .def_110)))
(let ((.def_112 (and .def_47 .def_111)))
(let ((.def_101 (and .s.2 .def_50)))
(let ((.def_102 (and .def_17 .def_101)))
(let ((.def_103 (not .def_102)))
(let ((.def_113 (or .def_103 .def_112)))
(let ((.def_204 (and .def_113 .def_203)))
(let ((.def_96 (and .def_35 .def_95)))
(let ((.def_97 (and .def_39 .def_96)))
(let ((.def_98 (and .def_43 .def_97)))
(let ((.def_99 (and .def_47 .def_98)))
(let ((.def_93 (and .s.3 .def_92)))
(let ((.def_94 (not .def_93)))
(let ((.def_100 (or .def_94 .def_99)))
(let ((.def_205 (and .def_100 .def_204)))
(let ((.def_77 (<= 1 main.k)))
(let ((.def_88 (not .def_77)))
(let ((.def_75 (and .def_15 .s.3)))
(let ((.def_89 (and .def_75 .def_88)))
(let ((.def_90 (not .def_89)))
(let ((.def_32 (and .def_30 .s.3.next)))
(let ((.def_36 (and .def_32 .def_35)))
(let ((.def_40 (and .def_36 .def_39)))
(let ((.def_44 (and .def_40 .def_43)))
(let ((.def_48 (and .def_44 .def_47)))
(let ((.def_91 (or .def_48 .def_90)))
(let ((.def_206 (and .def_91 .def_205)))
(let ((.def_82 (and .s.3.next .def_81)))
(let ((.def_83 (and .def_35 .def_82)))
(let ((.def_84 (and .def_39 .def_83)))
(let ((.def_85 (and .def_43 .def_84)))
(let ((.def_86 (and .def_47 .def_85)))
(let ((.def_78 (and .def_75 .def_77)))
(let ((.def_79 (not .def_78)))
(let ((.def_87 (or .def_79 .def_86)))
(let ((.def_207 (and .def_87 .def_206)))
(let ((.def_69 (and .s.3.next .def_68)))
(let ((.def_70 (and .def_35 .def_69)))
(let ((.def_71 (and .def_39 .def_70)))
(let ((.def_72 (and .def_43 .def_71)))
(let ((.def_73 (and .def_47 .def_72)))
(let ((.def_65 (and .s.3 .def_64)))
(let ((.def_66 (not .def_65)))
(let ((.def_74 (or .def_66 .def_73)))
(let ((.def_208 (and .def_74 .def_207)))
(let ((.def_52 (and .s.3 .def_51)))
(let ((.def_53 (not .def_52)))
(let ((.def_62 (or .def_53 .def_61)))
(let ((.def_209 (and .def_62 .def_208)))
(let ((.def_22 (and .s.3 .def_21)))
(let ((.def_23 (not .def_22)))
(let ((.def_49 (or .def_23 .def_48)))
(let ((.def_210 (and .def_49 .def_209)))
.def_210))))))))))))))))))))))))))))))))))))))))))))))))))))))))))))))))))))))))))))))))))))))))))))))))))))))))))))))))))))))))))))))))))))))))))))))))))))))))))))))))))))))))))))))))))))))))) (state |.s.1.next| |.s.0.next| |.s.2.next| |.s.3.next| |main.i.next| |main.k.next| |main.l.next| |main.n.next|))))
(assert (forall ((|.s.0| Bool) (|.s.1| Bool) (|.s.2.next| Bool) (|.s.0.next| Bool) (|.s.1.next| Bool) (|.s.3.next| Bool) (|main.i.next| Int) (|main.i| Int) (|main.k.next| Int) (|main.k| Int) (|main.l.next| Int) (|main.l| Int) (|main.n.next| Int) (|main.n| Int) (|.s.3| Bool) (|.s.2| Bool)) (=> (state |.s.1| |.s.0| |.s.2| |.s.3| |main.i| |main.k| |main.l| |main.n|) (let ((.def_19 (not .s.0)))
(let ((.def_10 (not .s.1)))
(let ((.def_20 (and .def_10 .def_19)))
(let ((.def_21 (and .s.2 .def_20)))
(let ((.def_22 (and .s.3 .def_21)))
(let ((.def_23 (not .def_22)))
.def_23)))))))))
(check-sat)
